Traveling Salesman Problem/TSP_generados/Aleatorio1620391588_15.tsp
NAME: Aleatorio1620391588_15.tsp
COMMENT: Randomly generated scenario
TYPE: TSP
DIMENSION: 15
EDGE_WEIGHT_TYPE: ATT
NODE_COORD_SECTION
1 44.0 12.05
2 23.34 20.09
3 16.46 37.53
4 5.79 36.72
5 14.34 12.4
6 8.57 25.96
7 34.24 1.32
8 31.18 5.67
9 3.13 0.97
10 37.39 19.25
11 15.29 17.18
12 2.73 14.52
13 18.99 12.91
14 28.36 40.79
15 13.52 38.83
