Traveling Salesman Problem/TSP_generados/Aleatorio1620391588_15.opt.tour
NAME: Aleatorio1620391588_15.opt.tour
COMMENT: Optimal solution for Aleatorio1620391588_15 (165.34394617291775)
TYPE: TOUR
DIMENSION: 15
TOUR_SECTION
1 10 14 3 15 4 6 12 9 5 13 11 2 8 7
-1
EOF
